* ENCODING=ISO-8859-1
NAME          CPLEX
ROWS
 N  obj1    
 G  c1      
 G  c2      
 G  c3      
 G  c4      
 G  c5      
 G  c6      
 G  c7      
 G  c8      
 G  c9      
 G  c10     
 G  c11     
 G  c12     
 G  c13     
 G  c14     
 G  c15     
 G  c16     
 G  c17     
 G  c18     
 G  c19     
 G  c20     
 G  c21     
 G  c22     
 G  c23     
 G  c24     
 G  c25     
 G  c26     
 G  c27     
 G  c28     
 G  c29     
 G  c30     
 G  c31     
 G  c32     
 G  c33     
 G  c34     
 G  c35     
 G  c36     
 G  c37     
 G  c38     
 G  c39     
 G  c40     
 G  c41     
 G  c42     
 G  c43     
 G  c44     
 G  c45     
 G  c46     
 G  c47     
 G  c48     
 G  c49     
 G  c50     
 G  c51     
 G  c52     
 G  c53     
 G  c54     
 G  c55     
 G  c56     
 G  c57     
 G  c58     
 G  c59     
 G  c60     
COLUMNS
    MARK0000  'MARKER'                 'INTORG'
    x1        obj1                            1
    x1        c18                           372
    x1        c28                           867
    x1        c33                           711
    x1        c34                           488
    x1        c37                           193
    x2        obj1                            1
    x2        c23                           798
    x2        c38                           652
    x2        c42                           151
    x2        c55                           607
    x3        obj1                            1
    x3        c5                            501
    x3        c14                           385
    x3        c22                           153
    x3        c25                           223
    x3        c31                           627
    x4        obj1                            1
    x4        c5                            772
    x4        c11                           842
    x4        c13                           802
    x4        c20                           169
    x4        c30                           818
    x4        c39                           951
    x4        c48                           339
    x4        c54                           959
    x4        c59                           587
    x5        obj1                            1
    x5        c20                           191
    x5        c24                           843
    x5        c41                           824
    x5        c43                           475
    x5        c57                           692
    x5        c60                           537
    x6        obj1                            1
    x6        c6                            138
    x6        c13                           600
    x6        c30                           937
    x6        c35                           463
    x6        c39                           580
    x6        c44                           864
    x6        c46                           586
    x6        c48                           327
    x6        c50                           665
    x6        c60                           270
    x7        obj1                            1
    x7        c1                            957
    x7        c7                            534
    x7        c26                           362
    x7        c28                           504
    x7        c40                           648
    x7        c51                           455
    x7        c53                           317
    x8        obj1                            1
    x8        c18                           321
    x8        c31                           227
    x8        c41                           792
    x8        c42                           264
    x8        c48                           334
    x9        obj1                            1
    x9        c23                           186
    x9        c24                           468
    x9        c45                           766
    x10       obj1                            1
    x10       c3                            933
    x10       c7                            882
    x10       c8                            280
    x10       c26                           130
    x10       c28                           421
    x10       c32                           197
    x10       c52                           574
    x10       c53                           984
    x10       c60                           380
    x11       obj1                            1
    x11       c5                            893
    x11       c10                           463
    x11       c34                           789
    x11       c43                           630
    x11       c49                           787
    x12       obj1                            1
    x12       c9                            971
    x12       c21                           830
    x12       c29                           933
    x12       c37                           276
    x12       c38                           726
    x12       c39                           214
    x12       c59                           402
    x13       obj1                            1
    x13       c19                           828
    x13       c42                           689
    x13       c46                           566
    x13       c49                           291
    x13       c50                           449
    x14       obj1                            1
    x14       c2                            456
    x14       c13                           182
    x14       c18                           251
    x14       c27                           980
    x14       c29                           519
    x14       c34                           369
    x14       c40                           821
    x15       obj1                            1
    x15       c9                            198
    x15       c11                           942
    x15       c47                           333
    x15       c51                           510
    x15       c52                           571
    x15       c53                           260
    x16       obj1                            1
    x16       c12                           499
    x16       c17                           907
    x16       c30                           240
    x16       c34                           122
    x16       c50                           794
    x16       c59                           560
    x17       obj1                            1
    x17       c18                           224
    x17       c23                           902
    x17       c30                           419
    x17       c40                           207
    x17       c52                           156
    x18       obj1                            1
    x18       c17                           260
    x18       c18                           702
    x18       c29                           825
    x19       obj1                            1
    x19       c1                            394
    x19       c25                           759
    x19       c56                           855
    x19       c59                           430
    x20       obj1                            1
    x20       c2                            555
    x20       c4                            255
    x20       c28                           530
    x20       c41                           862
    x20       c47                           316
    x20       c60                           994
    x21       obj1                            1
    x21       c5                            649
    x21       c11                           963
    x21       c17                           599
    x21       c27                           183
    x21       c30                           532
    x21       c53                           323
    x22       obj1                            1
    x22       c15                           181
    x22       c21                           192
    x22       c36                           131
    x22       c42                           382
    x22       c50                           299
    x23       obj1                            1
    x23       c12                           770
    x23       c15                           653
    x23       c26                           781
    x23       c31                           189
    x23       c38                           896
    x23       c39                           322
    x23       c53                           646
    x23       c57                           985
    x24       obj1                            1
    x24       c8                            937
    x24       c18                           316
    x24       c21                           192
    x24       c37                           792
    x24       c38                           343
    x24       c43                           265
    x24       c45                           873
    x24       c57                           986
    x24       c58                           511
    x25       obj1                            1
    x25       c38                           241
    x25       c43                           526
    x25       c44                           423
    x26       obj1                            1
    x26       c44                           274
    x26       c51                           888
    x27       obj1                            1
    x27       c1                            392
    x27       c28                           197
    x27       c49                           656
    x27       c50                           294
    x28       obj1                            1
    x28       c4                            854
    x28       c17                           495
    x28       c20                           474
    x28       c53                           854
    x29       obj1                            1
    x29       c4                            280
    x29       c10                           508
    x29       c19                           675
    x29       c33                           585
    x29       c37                           897
    x29       c56                           288
    x30       obj1                            1
    x30       c21                           405
    x30       c22                           697
    x30       c25                           942
    x30       c36                           584
    x30       c41                           552
    x30       c48                           953
    x30       c49                           281
    x31       obj1                            1
    x31       c9                            576
    x31       c41                           764
    x31       c42                           999
    x31       c45                           333
    x31       c46                           634
    x31       c48                           699
    x31       c56                           161
    x31       c60                           242
    x32       obj1                            1
    x32       c16                           954
    x32       c17                           852
    x32       c23                           727
    x32       c24                           667
    x32       c27                           435
    x32       c44                           860
    x32       c57                           683
    x32       c58                           734
    x33       obj1                            1
    x33       c20                           286
    x33       c22                           672
    x33       c24                           677
    x33       c27                           469
    x33       c33                           256
    x33       c42                           774
    x33       c46                           268
    x33       c55                           663
    x33       c57                           506
    x33       c59                           463
    x34       obj1                            1
    x34       c2                            848
    x34       c10                           424
    x34       c16                           138
    x34       c20                           951
    x34       c40                           421
    x35       obj1                            1
    x35       c11                           420
    x35       c14                           610
    x35       c42                           383
    x35       c49                           356
    x35       c50                           813
    x36       obj1                            1
    x36       c18                           740
    x36       c32                           339
    x36       c33                           815
    x36       c34                           163
    x37       obj1                            1
    x37       c6                            709
    x37       c7                            655
    x37       c12                           540
    x37       c26                           636
    x37       c34                           533
    x37       c41                           283
    x37       c54                           329
    x37       c59                           447
    x38       obj1                            1
    x38       c3                            641
    x38       c5                            128
    x38       c14                           679
    x38       c22                           493
    x38       c35                           630
    x38       c38                           138
    x38       c48                           983
    x38       c51                           478
    x39       obj1                            1
    x39       c1                            140
    x39       c4                            916
    x39       c17                           658
    x39       c18                           329
    x39       c51                           190
    x40       obj1                            1
    x40       c4                            451
    x40       c13                           817
    x40       c14                           661
    x40       c18                           630
    x40       c33                           317
    x40       c44                           627
    x40       c46                           889
    x40       c47                           413
    x41       obj1                            1
    x41       c2                            905
    x41       c22                           485
    x41       c27                           655
    x41       c32                           229
    x41       c33                           375
    x41       c39                           364
    x42       obj1                            1
    x42       c1                            652
    x42       c6                            870
    x42       c9                            507
    x42       c21                           338
    x42       c23                           982
    x42       c26                           289
    x42       c42                           823
    x42       c52                           792
    x43       obj1                            1
    x43       c5                            755
    x43       c10                           829
    x43       c12                           908
    x43       c17                           660
    x43       c19                           629
    x43       c30                           277
    x43       c46                           723
    x43       c56                           200
    x43       c57                           905
    x43       c60                           730
    x44       obj1                            1
    x44       c3                            347
    x44       c6                            115
    x44       c33                           985
    x44       c37                           730
    x44       c41                           182
    x44       c51                           216
    x44       c53                           756
    x45       obj1                            1
    x45       c23                           999
    x45       c32                           676
    x45       c39                           693
    x45       c59                           149
    x46       obj1                            1
    x46       c5                            335
    x46       c11                           225
    x46       c21                           499
    x46       c26                           590
    x46       c57                           500
    x46       c58                           968
    x47       obj1                            1
    x47       c2                            228
    x47       c15                           404
    x47       c26                           679
    x47       c44                           586
    x47       c47                           369
    x47       c57                           571
    x48       obj1                            1
    x48       c37                           646
    x48       c39                           175
    x48       c40                           192
    x48       c54                           912
    x48       c57                           593
    x49       obj1                            1
    x49       c2                            795
    x49       c10                           506
    x49       c32                           631
    x49       c33                           316
    x49       c38                           829
    x49       c50                           919
    x49       c59                           126
    x49       c60                           845
    x50       obj1                            1
    x50       c48                           401
    x50       c49                           566
    x50       c55                           139
    x50       c58                           340
    x51       obj1                            1
    x51       c9                            955
    x51       c10                           708
    x51       c32                           794
    x51       c54                           368
    x52       obj1                            1
    x52       c6                            121
    x52       c7                            920
    x52       c11                           754
    x52       c15                           429
    x52       c22                           895
    x52       c30                           943
    x52       c49                           252
    x52       c56                           854
    x52       c60                           340
    x53       obj1                            1
    x53       c2                            848
    x53       c28                           164
    x53       c46                           406
    x53       c48                           643
    x53       c51                           821
    x53       c60                           112
    x54       obj1                            1
    x54       c15                           786
    x54       c31                           137
    x54       c37                           562
    x54       c44                           109
    x54       c54                           920
    x54       c56                           988
    x55       obj1                            1
    x55       c1                            141
    x55       c14                           626
    x55       c28                           516
    x55       c37                           539
    x55       c56                           923
    x55       c59                           235
    x56       obj1                            1
    x56       c22                           813
    x56       c35                           245
    x56       c39                           247
    x56       c41                           977
    x56       c46                           817
    x56       c49                           733
    x56       c58                           832
    x57       obj1                            1
    x57       c2                            926
    x57       c8                            612
    x57       c14                           704
    x57       c15                           886
    x57       c28                           465
    x57       c58                           854
    x58       obj1                            1
    x58       c5                            278
    x58       c9                            887
    x58       c14                           898
    x58       c28                           364
    x58       c35                           689
    x58       c36                           640
    x58       c37                           625
    x58       c40                           141
    x58       c41                           872
    x58       c42                           647
    x58       c50                           553
    x59       obj1                            1
    x59       c48                           492
    x59       c51                           518
    x60       obj1                            1
    x60       c16                           951
    x60       c27                           212
    x60       c50                           499
    MARK0001  'MARKER'                 'INTEND'
RHS
    rhs       c1                           1338
    rhs       c2                           2781
    rhs       c3                            961
    rhs       c4                           1378
    rhs       c5                           2156
    rhs       c6                            977
    rhs       c7                           1496
    rhs       c8                            915
    rhs       c9                           2047
    rhs       c10                          1719
    rhs       c11                          2073
    rhs       c12                          1359
    rhs       c13                          1201
    rhs       c14                          2282
    rhs       c15                          1670
    rhs       c16                          1022
    rhs       c17                          2216
    rhs       c18                          1943
    rhs       c19                          1066
    rhs       c20                          1036
    rhs       c21                          1228
    rhs       c22                          2104
    rhs       c23                          2297
    rhs       c24                          1328
    rhs       c25                           962
    rhs       c26                          1734
    rhs       c27                          1467
    rhs       c28                          2014
    rhs       c29                          1139
    rhs       c30                          2083
    rhs       c31                           590
    rhs       c32                          1433
    rhs       c33                          2180
    rhs       c34                          1232
    rhs       c35                          1014
    rhs       c36                           678
    rhs       c37                          2630
    rhs       c38                          1913
    rhs       c39                          1773
    rhs       c40                          1215
    rhs       c41                          3054
    rhs       c42                          2556
    rhs       c43                           948
    rhs       c44                          1872
    rhs       c45                           986
    rhs       c46                          2445
    rhs       c47                           716
    rhs       c48                          2586
    rhs       c49                          1961
    rhs       c50                          2643
    rhs       c51                          2038
    rhs       c52                          1047
    rhs       c53                          2070
    rhs       c54                          1744
    rhs       c55                           705
    rhs       c56                          2135
    rhs       c57                          3211
    rhs       c58                          2120
    rhs       c59                          1700
    rhs       c60                          2225
BOUNDS
 LI bnd       x1        0
 LI bnd       x2        0
 LI bnd       x3        0
 LI bnd       x4        0
 LI bnd       x5        0
 LI bnd       x6        0
 LI bnd       x7        0
 LI bnd       x8        0
 LI bnd       x9        0
 LI bnd       x10       0
 LI bnd       x11       0
 LI bnd       x12       0
 LI bnd       x13       0
 LI bnd       x14       0
 LI bnd       x15       0
 LI bnd       x16       0
 LI bnd       x17       0
 LI bnd       x18       0
 LI bnd       x19       0
 LI bnd       x20       0
 LI bnd       x21       0
 LI bnd       x22       0
 LI bnd       x23       0
 LI bnd       x24       0
 LI bnd       x25       0
 LI bnd       x26       0
 LI bnd       x27       0
 LI bnd       x28       0
 LI bnd       x29       0
 LI bnd       x30       0
 LI bnd       x31       0
 LI bnd       x32       0
 LI bnd       x33       0
 LI bnd       x34       0
 LI bnd       x35       0
 LI bnd       x36       0
 LI bnd       x37       0
 LI bnd       x38       0
 LI bnd       x39       0
 LI bnd       x40       0
 LI bnd       x41       0
 LI bnd       x42       0
 LI bnd       x43       0
 LI bnd       x44       0
 LI bnd       x45       0
 LI bnd       x46       0
 LI bnd       x47       0
 LI bnd       x48       0
 LI bnd       x49       0
 LI bnd       x50       0
 LI bnd       x51       0
 LI bnd       x52       0
 LI bnd       x53       0
 LI bnd       x54       0
 LI bnd       x55       0
 LI bnd       x56       0
 LI bnd       x57       0
 LI bnd       x58       0
 LI bnd       x59       0
 LI bnd       x60       0
ENDATA
